p wcnf 9 35 217
217 1 2 0
217 1 4 0
217 1 6 0
217 1 7 0
217 1 8 0
217 2 3 0
217 2 5 0
217 2 6 0
217 2 8 0
217 2 9 0
217 3 4 0
217 3 6 0
217 3 7 0
217 3 8 0
217 3 9 0
217 4 5 0
217 4 7 0
217 4 8 0
217 4 9 0
217 5 6 0
217 5 7 0
217 5 8 0
217 6 7 0
217 7 8 0
217 7 9 0
217 8 9 0
21 -1 0
20 -2 0
20 -3 0
20 -4 0
21 -5 0
21 -6 0
19 -7 0
19 -8 0
21 -9 0
